c Maximum weighted independent set instances generated from exactcolors.
c scalef: 26843545 .
c An independent set of value > 26843545 defines an improving stable sets for coloring.
p edge 80 346
e 1 2
e 1 4
e 1 17
e 1 19
e 2 3
e 2 16
e 2 18
e 3 6
e 3 12
e 3 17
e 3 21
e 3 27
e 4 5
e 4 12
e 4 16
e 4 20
e 4 27
e 5 8
e 5 13
e 5 19
e 5 23
e 5 28
e 6 7
e 6 13
e 6 18
e 6 22
e 6 28
e 7 10
e 7 14
e 7 21
e 7 25
e 7 29
e 8 9
e 8 14
e 8 20
e 8 24
e 8 29
e 9 11
e 9 15
e 9 23
e 9 26
e 9 30
e 10 11
e 10 15
e 10 22
e 10 26
e 10 30
e 11 12
e 11 13
e 11 14
e 11 15
e 11 24
e 11 25
e 11 27
e 11 28
e 11 29
e 11 30
e 12 13
e 12 14
e 12 15
e 12 18
e 12 19
e 12 26
e 12 28
e 12 29
e 12 30
e 13 14
e 13 15
e 13 20
e 13 21
e 13 26
e 13 27
e 13 29
e 13 30
e 14 15
e 14 22
e 14 23
e 14 26
e 14 27
e 14 28
e 14 30
e 15 24
e 15 25
e 15 26
e 15 27
e 15 28
e 15 29
e 16 32
e 16 34
e 16 77
e 17 31
e 17 33
e 17 77
e 18 32
e 18 36
e 18 42
e 18 77
e 19 31
e 19 35
e 19 42
e 19 77
e 20 34
e 20 38
e 20 43
e 20 77
e 21 33
e 21 37
e 21 43
e 21 77
e 22 36
e 22 40
e 22 44
e 22 77
e 23 35
e 23 39
e 23 44
e 23 77
e 24 38
e 24 41
e 24 45
e 24 77
e 25 37
e 25 41
e 25 45
e 25 77
e 26 39
e 26 40
e 26 42
e 26 43
e 26 44
e 26 45
e 26 77
e 27 33
e 27 34
e 27 41
e 27 43
e 27 44
e 27 45
e 27 77
e 28 35
e 28 36
e 28 41
e 28 42
e 28 44
e 28 45
e 28 77
e 29 37
e 29 38
e 29 41
e 29 42
e 29 43
e 29 45
e 29 77
e 30 39
e 30 40
e 30 41
e 30 42
e 30 43
e 30 44
e 30 77
e 31 47
e 31 49
e 31 78
e 32 46
e 32 48
e 32 78
e 33 47
e 33 51
e 33 57
e 33 78
e 34 46
e 34 50
e 34 57
e 34 78
e 35 49
e 35 53
e 35 58
e 35 78
e 36 48
e 36 52
e 36 58
e 36 78
e 37 51
e 37 55
e 37 59
e 37 78
e 38 50
e 38 54
e 38 59
e 38 78
e 39 53
e 39 56
e 39 60
e 39 78
e 40 52
e 40 56
e 40 60
e 40 78
e 41 54
e 41 55
e 41 57
e 41 58
e 41 59
e 41 60
e 41 78
e 42 48
e 42 49
e 42 56
e 42 58
e 42 59
e 42 60
e 42 78
e 43 50
e 43 51
e 43 56
e 43 57
e 43 59
e 43 60
e 43 78
e 44 52
e 44 53
e 44 56
e 44 57
e 44 58
e 44 60
e 44 78
e 45 54
e 45 55
e 45 56
e 45 57
e 45 58
e 45 59
e 45 78
e 46 62
e 46 64
e 46 79
e 47 61
e 47 63
e 47 79
e 48 62
e 48 66
e 48 72
e 48 79
e 49 61
e 49 65
e 49 72
e 49 79
e 50 64
e 50 68
e 50 73
e 50 79
e 51 63
e 51 67
e 51 73
e 51 79
e 52 66
e 52 70
e 52 74
e 52 79
e 53 65
e 53 69
e 53 74
e 53 79
e 54 68
e 54 71
e 54 75
e 54 79
e 55 67
e 55 71
e 55 75
e 55 79
e 56 69
e 56 70
e 56 72
e 56 73
e 56 74
e 56 75
e 56 79
e 57 63
e 57 64
e 57 71
e 57 73
e 57 74
e 57 75
e 57 79
e 58 65
e 58 66
e 58 71
e 58 72
e 58 74
e 58 75
e 58 79
e 59 67
e 59 68
e 59 71
e 59 72
e 59 73
e 59 75
e 59 79
e 60 69
e 60 70
e 60 71
e 60 72
e 60 73
e 60 74
e 60 79
e 61 76
e 61 80
e 62 76
e 62 80
e 63 76
e 63 80
e 64 76
e 64 80
e 65 76
e 65 80
e 66 76
e 66 80
e 67 76
e 67 80
e 68 76
e 68 80
e 69 76
e 69 80
e 70 76
e 70 80
e 71 76
e 71 80
e 72 76
e 72 80
e 73 76
e 73 80
e 74 76
e 74 80
e 75 76
e 75 80
e 76 77
e 76 78
e 76 79
e 76 80
e 77 78
e 77 79
e 77 80
e 78 79
e 78 80
e 79 80
n 1 0
n 2 0
n 3 0
n 4 0
n 5 0
n 6 0
n 7 0
n 8 0
n 9 0
n 10 0
n 11 21474836
n 12 21474836
n 13 21474836
n 14 21474836
n 15 21474836
n 16 0
n 17 0
n 18 0
n 19 0
n 20 0
n 21 0
n 22 0
n 23 0
n 24 0
n 25 0
n 26 5368708
n 27 5368708
n 28 5368708
n 29 5368708
n 30 5368709
n 31 0
n 32 0
n 33 0
n 34 0
n 35 0
n 36 0
n 37 0
n 38 0
n 39 0
n 40 0
n 41 0
n 42 0
n 43 0
n 44 0
n 45 0
n 46 0
n 47 0
n 48 0
n 49 0
n 50 0
n 51 0
n 52 0
n 53 0
n 54 0
n 55 0
n 56 0
n 57 0
n 58 0
n 59 0
n 60 0
n 61 0
n 62 0
n 63 0
n 64 0
n 65 0
n 66 0
n 67 0
n 68 0
n 69 0
n 70 0
n 71 0
n 72 0
n 73 0
n 74 0
n 75 0
n 76 0
n 77 5368708
n 78 0
n 79 0
n 80 0
